% number of games is 80
num = 80;
cap = 5;
refill = 2;
fun = [-16, -14, 1, -15, 17, -8, 7, -20, 0, -13, 18, -7, 8, 20, 4, 20, -3, 12, -5, -3, 0, 1, 16, -4, -4, -16, -17, 16, -2, -2, 14, -12, -17, 18, 6, -4, 4, 5, -19, -12, -14, -12, -7, 10, -15, -17, -15, 0, -1, -10, 15, -10, -5, 14, -6, -17, 9, -6, -19, 13, 7, 13, -1, -6, 6, 8, 16, -9, 6, -17, -6, 6, 3, 12, 13, 4, 20, -6, 15, 15];
